S = 5;
start = [|0,0,23,19,16,0,0,10,0,0,0,0,0,13,0,0,0,4,0,0,14,0,0,22,21|
18,1,12,9,0,0,0,0,0,0,0,22,0,0,4,23,6,0,0,20,0,0,0,0,0|
0,0,0,5,0,0,8,0,0,25,0,20,0,2,0,0,0,12,9,0,0,0,0,17,13|
0,0,0,6,0,0,0,16,14,0,25,0,0,11,8,0,0,0,0,0,0,0,0,0,5|
0,11,0,0,13,0,9,23,0,0,0,0,16,0,0,0,0,0,0,0,8,0,0,0,0|
24,22,0,0,0,0,0,1,25,0,0,5,18,0,0,0,0,9,0,0,0,0,11,0,4|
0,0,0,25,0,0,4,0,0,0,0,0,0,0,0,0,0,0,0,0,0,2,0,0,0|
0,0,0,0,2,0,0,0,23,0,0,0,0,0,0,0,18,6,0,5,0,0,0,0,0|
0,0,0,0,19,0,0,0,0,0,0,0,0,0,0,0,3,24,0,0,0,0,0,0,0|
0,0,0,0,0,3,13,14,0,0,0,24,0,23,2,1,4,0,0,0,7,0,0,0,10|
0,5,0,23,17,0,0,12,1,0,9,8,0,14,0,16,0,25,0,4,11,0,3,0,0|
0,0,0,0,0,4,5,0,0,0,22,0,0,0,23,0,0,20,18,0,6,0,0,14,0|
0,2,0,0,0,0,0,0,0,0,0,13,17,1,0,0,0,0,23,0,0,0,25,0,9|
25,19,0,0,20,0,0,0,13,0,0,6,0,0,12,17,0,15,0,7,0,22,0,5,1|
22,0,7,0,0,0,0,0,6,0,0,0,0,0,0,11,0,0,0,0,13,0,20,16,23|
0,0,0,0,11,0,25,20,0,0,0,1,0,0,6,0,0,0,0,0,0,19,0,0,0|
12,0,0,0,6,11,0,0,0,0,24,0,0,20,0,0,0,0,15,0,0,16,0,0,0|
0,15,9,0,24,22,0,0,0,13,0,0,23,0,10,0,0,11,0,17,0,5,21,0,0|
0,4,0,18,0,0,0,8,0,0,13,0,9,0,0,0,0,0,0,0,0,0,0,0,6|
0,0,0,0,23,0,6,15,0,0,21,0,0,22,0,8,19,0,24,18,9,0,0,0,0|
1,20,0,0,10,21,14,0,0,0,0,0,4,25,0,0,23,0,5,0,0,3,0,2,0|
0,24,13,22,0,0,0,0,0,5,0,0,0,0,19,4,0,0,0,21,0,8,15,0,0|
0,6,0,17,21,25,0,0,0,16,3,18,0,0,0,0,0,0,10,0,0,0,0,0,0|
0,0,14,0,0,0,0,13,3,0,0,0,0,0,0,0,20,2,0,0,24,25,0,0,0|
0,0,0,7,15,0,0,0,0,0,0,14,13,0,16,6,17,0,0,12,0,0,19,0,11|];